(set-info :smt-lib-version 2.6)
(set-logic QF_UFLRA)
(set-info :source |
MathSat group

|)
(set-info :category "random")
(set-info :status sat)
(declare-fun x0 () Real)
(declare-fun x1 () Real)
(declare-fun x2 () Real)
(declare-fun x3 () Real)
(declare-fun x4 () Real)
(declare-fun x5 () Real)
(declare-fun x6 () Real)
(declare-fun x7 () Real)
(declare-fun x8 () Real)
(declare-fun x9 () Real)
(declare-fun x10 () Real)
(declare-fun x11 () Real)
(declare-fun x12 () Real)
(declare-fun x13 () Real)
(declare-fun x14 () Real)
(declare-fun x15 () Real)
(declare-fun x16 () Real)
(declare-fun x17 () Real)
(declare-fun x18 () Real)
(declare-fun x19 () Real)
(declare-fun x20 () Real)
(declare-fun x21 () Real)
(declare-fun x22 () Real)
(declare-fun x23 () Real)
(declare-fun x24 () Real)
(declare-fun x25 () Real)
(declare-fun x26 () Real)
(declare-fun x27 () Real)
(declare-fun x28 () Real)
(declare-fun x29 () Real)
(declare-fun x30 () Real)
(declare-fun x31 () Real)
(declare-fun x32 () Real)
(declare-fun x33 () Real)
(declare-fun x34 () Real)
(declare-fun x35 () Real)
(declare-fun x36 () Real)
(declare-fun x37 () Real)
(declare-fun x38 () Real)
(declare-fun x39 () Real)
(declare-fun x40 () Real)
(declare-fun x41 () Real)
(declare-fun x42 () Real)
(declare-fun x43 () Real)
(declare-fun x44 () Real)
(declare-fun x45 () Real)
(declare-fun x46 () Real)
(declare-fun x47 () Real)
(declare-fun x48 () Real)
(declare-fun x49 () Real)
(declare-fun f0_1 (Real) Real)
(declare-fun f0_2 (Real Real) Real)
(declare-fun f0_3 (Real Real Real) Real)
(declare-fun f0_4 (Real Real Real Real) Real)
(declare-fun P0 () Bool)
(declare-fun P1 () Bool)
(declare-fun P2 () Bool)
(declare-fun P3 () Bool)
(declare-fun P4 () Bool)
(declare-fun P5 () Bool)
(declare-fun P6 () Bool)
(declare-fun P7 () Bool)
(declare-fun P8 () Bool)
(declare-fun P9 () Bool)
(declare-fun P10 () Bool)
(declare-fun P11 () Bool)
(declare-fun P12 () Bool)
(declare-fun P13 () Bool)
(declare-fun P14 () Bool)
(declare-fun P15 () Bool)
(declare-fun P16 () Bool)
(declare-fun P17 () Bool)
(declare-fun P18 () Bool)
(declare-fun P19 () Bool)
(declare-fun P20 () Bool)
(declare-fun P21 () Bool)
(declare-fun P22 () Bool)
(declare-fun P23 () Bool)
(declare-fun P24 () Bool)
(declare-fun P25 () Bool)
(declare-fun P26 () Bool)
(declare-fun P27 () Bool)
(declare-fun P28 () Bool)
(declare-fun P29 () Bool)
(declare-fun P30 () Bool)
(declare-fun P31 () Bool)
(declare-fun P32 () Bool)
(declare-fun P33 () Bool)
(declare-fun P34 () Bool)
(declare-fun P35 () Bool)
(declare-fun P36 () Bool)
(declare-fun P37 () Bool)
(declare-fun P38 () Bool)
(declare-fun P39 () Bool)
(declare-fun P40 () Bool)
(declare-fun P41 () Bool)
(declare-fun P42 () Bool)
(declare-fun P43 () Bool)
(declare-fun P44 () Bool)
(declare-fun P45 () Bool)
(declare-fun P46 () Bool)
(declare-fun P47 () Bool)
(declare-fun P48 () Bool)
(declare-fun P49 () Bool)
(assert (let ((?v_44 (<= (- (- (* 20 x35) (* 5 x19)) (* 18 x30)) 12)) (?v_57 (* 7 x22)) (?v_37 (<= (- (+ (* 8 x38) (* 6 x28)) (* 14 x21)) 20)) (?v_4 (* 4 x5)) (?v_28 (* 20 x36)) (?v_228 (distinct (+ (- (* 4 x38) (* 15 x45)) (* 2 x49)) 21)) (?v_19 (<= (- (- (* 3 x34) (* 13 x24)) (* 24 x9)) 10)) (?v_252 (< (- (+ (* 10 x29) (* 17 x4)) (* 5 x29)) 3)) (?v_107 (distinct (f0_2 x33 x20) (f0_2 x36 x27))) (?v_183 (distinct (f0_2 x28 x14) (f0_1 x15))) (?v_187 (f0_1 x45))) (let ((?v_249 (distinct ?v_187 (f0_1 x34))) (?v_124 (f0_1 x47))) (let ((?v_193 (distinct ?v_124 x18)) (?v_16 (= (f0_2 x23 x4) x34)) (?v_179 (distinct (f0_2 x22 x24) (f0_2 x26 x31))) (?v_240 (= (f0_1 x26) x28)) (?v_94 (distinct x28 (f0_1 x42))) (?v_47 (f0_1 x38))) (let ((?v_64 (= (f0_2 x46 x25) ?v_47)) (?v_163 (f0_1 x46))) (let ((?v_234 (= (f0_1 x22) ?v_163)) (?v_31 (= x46 x7)) (?v_85 (= x45 (f0_2 x3 x46))) (?v_66 (distinct x6 (f0_2 x12 x44))) (?v_21 (f0_1 x13)) (?v_52 (f0_1 x48))) (let ((?v_168 (= ?v_21 ?v_52)) (?v_87 (= (f0_1 x19) (f0_2 x15 x42))) (?v_131 (= ?v_124 (f0_2 x1 x44))) (?v_78 (distinct (f0_2 x34 x9) (f0_1 x7))) (?v_92 (distinct (f0_2 x21 x4) x9)) (?v_158 (= (f0_2 x3 x22) x22)) (?v_137 (distinct (f0_2 x46 x37) x34)) (?v_221 (distinct ?v_21 x19)) (?v_34 (= (f0_2 x48 x37) (f0_2 x10 x47))) (?v_15 (= (f0_2 x30 x28) (f0_2 x36 x43))) (?v_18 (distinct (f0_2 x43 x2) (f0_2 x23 x11))) (?v_2 (f0_1 x24))) (let ((?v_148 (distinct (f0_2 x42 x49) ?v_2)) (?v_93 (distinct (f0_2 x43 x45) x23)) (?v_46 (distinct ?v_2 (f0_2 x19 x31))) (?v_164 (f0_1 x31))) (let ((?v_51 (= ?v_164 (f0_1 x9))) (?v_153 (distinct x0 (f0_1 x27))) (?v_33 (distinct x32 (f0_1 x10))) (?v_161 (distinct (f0_2 x36 x11) (f0_2 x46 x6))) (?v_121 (= ?v_2 x5)) (?v_1 (= (f0_1 x16) ?v_2)) (?v_42 (= ?v_187 (f0_2 x16 x8))) (?v_75 (f0_1 x35))) (let ((?v_102 (distinct (f0_2 x6 x33) ?v_75)) (?v_39 (= (f0_2 x5 x18) (f0_2 x42 x28))) (?v_238 (distinct (f0_1 x8) ?v_164)) (?v_65 (= (f0_2 x14 x22) (f0_2 x17 x16))) (?v_248 (= (f0_2 x49 x14) x20)) (?v_50 (distinct (f0_1 x30) ?v_21)) (?v_146 (= (f0_2 x6 x26) x25)) (?v_24 (= x34 ?v_52)) (?v_61 (distinct x34 ?v_75)) (?v_23 (= (f0_2 x28 x3) (f0_2 x17 x29))) (?v_10 (= (f0_1 x2) x37)) (?v_219 (= ?v_75 ?v_163)) (?v_223 (= (f0_1 x3) (f0_2 x14 x14))) (?v_241 (= (f0_2 x35 x7) x48)) (?v_144 (distinct (f0_1 x4) (f0_2 x29 x15))) (?v_11 (not P22)) (?v_89 (not ?v_93)) (?v_154 (not P10)) (?v_115 (not ?v_37)) (?v_22 (not P5)) (?v_43 (not P12)) (?v_136 (not ?v_16)) (?v_0 (not ?v_234)) (?v_3 (not P8)) (?v_71 (not P36))) (let ((?v_95 (not ?v_23)) (?v_20 (not ?v_1)) (?v_129 (not P46)) (?v_29 (not ?v_121)) (?v_9 (not ?v_15)) (?v_58 (not P27)) (?v_8 (not P32)) (?v_53 (not ?v_66)) (?v_91 (not ?v_46)) (?v_62 (not P48)) (?v_118 (not ?v_221)) (?v_114 (not P21)) (?v_17 (not ?v_10)) (?v_135 (not ?v_39)) (?v_80 (not ?v_31)) (?v_195 (not P31)) (?v_101 (not ?v_44)) (?v_73 (not P18)) (?v_142 (not ?v_19)) (?v_45 (not ?v_18)) (?v_177 (not ?v_50)) (?v_175 (not ?v_78)) (?v_167 (not P16)) (?v_235 (not ?v_87)) (?v_147 (not P20)) (?v_244 (not ?v_34)) (?v_226 (not ?v_64)) (?v_173 (not ?v_33)) (?v_190 (not P29)) (?v_125 (not ?v_153)) (?v_105 (not ?v_42)) (?v_194 (not ?v_248)) (?v_204 (not P39)) (?v_189 (not P43)) (?v_49 (not P41)) (?v_55 (not ?v_228)) (?v_171 (not P19)) (?v_84 (not ?v_193)) (?v_209 (not P7)) (?v_106 (not (= (f0_2 x39 x25) ?v_47))) (?v_199 (not ?v_168)) (?v_202 (not P15)) (?v_185 (not P13)) (?v_254 (not P23)) (?v_188 (not ?v_61)) (?v_98 (not P9)) (?v_123 (not P42)) (?v_201 (not ?v_158)) (?v_230 (not ?v_179)) (?v_82 (not ?v_146)) (?v_111 (not ?v_102)) (?v_88 (not P44)) (?v_81 (not ?v_183)) (?v_225 (not ?v_144)) (?v_83 (not ?v_161)) (?v_103 (not ?v_252)) (?v_237 (not P34)) (?v_119 (not P3)) (?v_159 (not ?v_85)) (?v_126 (not P26)) (?v_128 (not ?v_24)) (?v_145 (not P38)) (?v_97 (not ?v_94)) (?v_260 (not P33)) (?v_180 (not ?v_107)) (?v_203 (not P37)) (?v_133 (not P6)) (?v_251 (not P28)) (?v_151 (not P35)) (?v_132 (not P17)) (?v_150 (not ?v_240)) (?v_198 (not ?v_148)) (?v_176 (not ?v_131)) (?v_186 (not ?v_137)) (?v_211 (not P45)) (?v_162 (not P30)) (?v_191 (not P49)) (?v_156 (not ?v_51)) (?v_217 (not P24)) (?v_170 (not ?v_65)) (?v_215 (not P11)) (?v_243 (not ?v_92)) (?v_256 (not ?v_238)) (?v_214 (not ?v_249)) (?v_216 (not P4)) (?v_224 (not P47)) (?v_233 (not ?v_219)) (?v_242 (not ?v_223)) (?v_257 (not P14)) (?v_245 (not ?v_241)) (?v_247 (not P25)) (?v_250 (not P2)) (?v_246 (not P1)) (?v_99 (= (- (* 12 x29) (* 24 x8)) 8))) (let ((?v_5 (not ?v_99)) (?v_127 (<= (+ (* 22 x48) (* 24 x49) (* 15 x42)) 6)) (?v_40 (<= (+ (* 14 x5) (* 5 x37)) 3)) (?v_54 (<= (+ (* 7 x9) (* 27 x14) (* 21 x22)) 28))) (let ((?v_227 (not ?v_54)) (?v_160 (not ?v_40)) (?v_206 (< (- (+ (* 7 x10) x37) (* 12 x13)) 12))) (let ((?v_253 (not ?v_206)) (?v_258 (not ?v_127)) (?v_32 (<= (- (- (* (- 1) x16) (* 26 x27)) (* 8 x47)) 12))) (let ((?v_113 (not ?v_32)) (?v_200 (<= (- (- (* 26 x23) (* 9 x34)) 0) (- 2)))) (let ((?v_7 (not ?v_200)) (?v_140 (= (+ (- (* (- 3) x43) (* 13 x49)) (* 11 x39)) 18)) (?v_6 (< (- (* 24 x46) (* 2 x26)) (- 29))) (?v_166 (< (- (- ?v_4 ?v_28) x19) (- 4))) (?v_96 (<= (+ (- (* 17 x41) (* 16 x45)) (* 12 x28)) (- 22))) (?v_112 (<= (+ (* (- 27) x1) (* 8 x22)) (- 13))) (?v_13 (<= (+ (- (* (- 14) x42) (* 15 x40)) (* 7 x29)) (- 23))) (?v_27 (<= (- (- (* 15 x39) (* 17 x5)) (* 17 x42)) (- 3))) (?v_63 (= (- (* (- 12) x5) (* 23 x16)) (- 18))) (?v_41 (< (- (- (* (- 27) x33) (* 23 x14)) ?v_4) 29)) (?v_14 (<= (- (- (* (- 25) x36) (* 4 x34)) (* 25 x3)) 10)) (?v_218 (<= (+ (* (- 15) x30) (* 8 x20) (* 26 x14)) 6))) (let ((?v_130 (not ?v_218)) (?v_35 (< (- (- 0 (* 3 x9)) (* 7 x16)) (- 25)))) (let ((?v_12 (not ?v_35)) (?v_134 (< (- (+ (* 5 x12) (* 27 x3)) x3) (- 16)))) (let ((?v_143 (not ?v_134)) (?v_36 (<= (- (* (- 21) x41) (* 4 x37)) (- 9)))) (let ((?v_70 (not ?v_36)) (?v_72 (< (- (+ (* 13 x42) (* 12 x3)) (* 27 x5)) (- 27))) (?v_122 (< (+ (- (* 4 x17) (* 17 x19)) (* 21 x43)) (- 7)))) (let ((?v_172 (not ?v_122)) (?v_157 (< (- (+ (* 22 x41) (* 8 x40)) (* 15 x34)) (- 6)))) (let ((?v_68 (not ?v_157)) (?v_30 (< (- (+ (* (- 23) x0) (* 6 x18)) (* 15 x49)) (- 28)))) (let ((?v_77 (not ?v_30)) (?v_25 (<= (- (+ (* 23 x22) (* 2 x28)) (* 6 x16)) (- 13)))) (let ((?v_26 (not ?v_25)) (?v_48 (<= (+ (* (- 18) x44) (* 9 x13) (* 16 x7)) (- 26))) (?v_38 (distinct (- (+ (* (- 27) x42) (* 18 x14)) (* 24 x36)) 25)) (?v_67 (<= (- (- (* 23 x7) (* 3 x24)) (* 10 x39)) (- 5))) (?v_139 (< (+ (- 0 (* 18 x32)) (* 2 x10)) (- 20)))) (let ((?v_69 (not ?v_139)) (?v_120 (<= (+ (- (* 17 x12) (* 7 x25)) ?v_57) (- 20))) (?v_109 (not ?v_27)) (?v_169 (< (- (- (* (- 18) x23) (* 14 x22)) ?v_28) (- 12)))) (let ((?v_110 (not ?v_169)) (?v_76 (<= (- x27 (* 4 x44)) (- 22))) (?v_86 (<= (- (* 26 x7) (* 17 x31)) (- 17))) (?v_74 (not ?v_41)) (?v_79 (< (+ (- (* 24 x15) (* 15 x3)) (* 25 x26)) (- 23)))) (let ((?v_208 (not ?v_79)) (?v_197 (= (+ (- (* 19 x35) (* 6 x12)) (* 13 x11)) (- 28)))) (let ((?v_59 (not ?v_197))) (let ((?v_255 (or ?v_7 ?v_59)) (?v_149 (not ?v_14)) (?v_152 (not ?v_48)) (?v_56 (not ?v_6)) (?v_100 (<= (- (+ (* (- 19) x14) (* 19 x29)) (* 4 x43)) 24))) (let ((?v_60 (not ?v_100)) (?v_104 (< (- (- (* (- 24) x18) ?v_57) (* 22 x44)) 1)) (?v_116 (not ?v_63)) (?v_108 (not ?v_38)) (?v_232 (not ?v_67)) (?v_90 (<= (+ (* (- 24) x37) (* 14 x25) (* 10 x11)) 26)) (?v_117 (distinct (+ (* 21 x42) x11 (* 11 x14)) (- 14))) (?v_212 (not ?v_86))) (let ((?v_210 (not ?v_90)) (?v_155 (not ?v_96)) (?v_141 (< (- (- (* (- 11) x6) (* 21 x32)) (* 21 x46)) 29)) (?v_236 (not ?v_13)) (?v_184 (<= (+ (- (* (- 12) x26) (* 6 x2)) (* 17 x40)) 7))) (let ((?v_196 (not ?v_184)) (?v_138 (distinct (- (- (* (- 13) x26) (* 7 x4)) (* 12 x6)) (- 10))) (?v_174 (<= (+ (- (* (- 26) x47) (* 13 x17)) (* 23 x48)) 6))) (let ((?v_220 (not ?v_174)) (?v_192 (not ?v_117)) (?v_181 (not ?v_104)) (?v_165 (not ?v_72)) (?v_259 (or ?v_37 ?v_63)) (?v_178 (not ?v_120)) (?v_207 (not ?v_140)) (?v_182 (not ?v_141)) (?v_213 (not ?v_166)) (?v_229 (not ?v_76)) (?v_205 (distinct (+ (- (* (- 6) x18) (* 7 x39)) (* 5 x31)) 17)) (?v_222 (not ?v_138))) (let ((?v_239 (not ?v_205)) (?v_231 (not ?v_112))) (and (and (and (and (and (and (and (and (and (and (and (and (and (and (and (and (and (and (and (and (and (and (and (and (and (and (and (and (and (and (and (and (and (and (and (and (and (and (and (and (and (and (and (and (and (and (and (and (and (and (and (and (and (and (and (and (and (and (and (and (and (and (and (and (and (and (and (and (and (and (and (and (and (and (and (and (and (and (and (and (and (and (and (and (and (and (and (and (and (and (and (and (and (and (and (and (and (and (and (and (and (and (and (and (and (and (and (and (and (and (and (and (and (and (and (and (and (and (and (and (and (and (and (and (and (and (and (and (and (and (and (and (and (and (and (and (and (and (and (and (and (and (and (and (and (and (and (and (and (and (and (and (and (and (and (and (and (and (and (and (and (and (and (and (and (and (and (and (and (and (and (and (and (and (and (and (and (and (and (and (and (and (and (and (and (and (and (and (and (and (and (and (and (and (and (and (and (and (and (and (and (and (and (and (and (and (and (and (and (and (and (and (and (and (and (and (and (and (and (and (and (and (and (and (and (and (and (and (and (and (and (and (and (and (and (and (and (and (and (and (and (and (and (and (and (and (and (and (and (and (and (and (and (and (and (and (and (and (and (and (and (and (and (and (and (and (and (and (and (and (and (and (and (and (and (and (and (and (and (and (and (and (and (and (and (and (and (and (and (and (and (and (and (and (and (and (and (and (and (and (and (and (and (and (and (and (and (and (and (and (and (and (and (and (and (and (and (and (and (and (and (and (and (and (and (and (and (and (and (and (and (and (and (and (and (and (and (and (and (and (and (and (and (and (and (and (and (and (and (and (and (and (and (and (and (and (and (and (and (and (and (and (and (and (and (and (and (and (and (and (and (and (and (and (and (and (and (and (and (and (and (and (and (and (and (and (and (and (and (and (and (and (and (and (and (and (and (and (and (and (and (and (and (and (and (and (and (and (and (and (and (and (and (and (and (and (and (and (and (and (and (and (and (and (and (and (and (and (and (and (and (and (and (and (and (and (and (and (and (and (and (and (and (and (and (and (and (and (and (and (and (and (and (and (and (and (and (and (and (and (and (and (and (and (and (and (and (and (and (and (and (and (and (and (and (and (and (and (and (and (and (and (and (and (and (and (and (and (and (and (and (and (and (and (and (and (and (and (and (and (and (and (and (and (and (and (and (and (and (and (and (and (and (and (and (and (and (and (and (and (and (and (and (and (and (and (and (and (and (and (and (and (and (and (and (and (and (and (and (and (and (and (and (and (and (and (and (and (and (and (and (and (and (and (and (and (and (and (and (and (and (and (and (and (and (and (and (and (and (and (and (and (and (and (and (and (and (and (and (and (and (and (and (and (and (and (and (and (and (and (and (and (and (and (and (and (and (and (and (or (or ?v_5 ?v_18) ?v_11) (or (or ?v_127 ?v_89) ?v_113)) (or (or ?v_154 ?v_7) ?v_115)) (or (or ?v_1 ?v_22) ?v_140)) (or (or ?v_43 ?v_136) ?v_6)) (or (or ?v_166 ?v_94) P46)) (or (or P9 P20) P38)) (or (or ?v_0 ?v_33) ?v_96)) (or (or P21 P8) ?v_0)) (or (or ?v_3 ?v_24) ?v_71)) (or (or ?v_95 P25) ?v_112)) (or (or P14 ?v_20) P26)) (or (or ?v_129 ?v_29) ?v_85)) (or (or ?v_13 ?v_9) P26)) (or (or ?v_3 ?v_27) P18)) (or (or ?v_63 P48) ?v_41)) (or (or ?v_58 ?v_51) P1)) (or (or ?v_14 P12) ?v_8)) (or (or ?v_10 ?v_5) ?v_53)) (or (or ?v_130 ?v_12) ?v_6)) (or (or ?v_91 ?v_7) ?v_143)) (or (or P21 ?v_70) P38)) (or (or ?v_62 ?v_118) ?v_8)) (or (or P18 ?v_9) P12)) (or (or ?v_114 ?v_17) ?v_135)) (or (or ?v_11 P15) ?v_80)) (or (or ?v_195 ?v_12) ?v_101)) (or (or ?v_73 P20) ?v_142)) (or (or ?v_13 ?v_72) ?v_172)) (or (or ?v_14 ?v_15) P29)) (or (or ?v_68 ?v_16) ?v_17)) (or (or ?v_45 ?v_77) ?v_19)) (or (or ?v_20 ?v_13) P33)) (or (or ?v_26 ?v_5) ?v_177)) (or (or ?v_48 ?v_175) ?v_22)) (or (or ?v_167 ?v_235) ?v_23)) (or (or ?v_24 ?v_38) ?v_67)) (or (or ?v_25 ?v_69) P1)) (or (or ?v_147 P39) P35)) (or (or ?v_244 ?v_26) ?v_120)) (or (or P46 ?v_40) ?v_226)) (or (or ?v_109 ?v_16) ?v_110)) (or (or ?v_29 ?v_30) ?v_14)) (or (or ?v_31 P14) P3)) (or (or ?v_32 ?v_173) ?v_34)) (or (or ?v_61 ?v_35) ?v_36)) (or (or ?v_190 ?v_37) ?v_38)) (or (or ?v_125 ?v_76) ?v_86)) (or (or ?v_39 ?v_54) P24)) (or (or ?v_105 ?v_194) ?v_38)) (or (or ?v_40 ?v_204) P7)) (or (or ?v_189 P21) P47)) (or (or ?v_49 ?v_74) ?v_55)) (or (or P10 ?v_42) ?v_171)) (or (or ?v_84 ?v_43) ?v_209)) (or (or ?v_42 P3) ?v_22)) (or (or ?v_208 ?v_44) P11)) (or (or ?v_45 ?v_43) ?v_26)) (or ?v_255 ?v_46)) (or (or ?v_106 P39) ?v_15)) (or (or ?v_149 P11) P2)) (or (or ?v_152 ?v_12) P26)) (or (or ?v_65 P49) ?v_56)) (or (or ?v_33 ?v_32) P48)) (or (or ?v_20 ?v_49) ?v_46)) (or (or ?v_50 ?v_51) ?v_199)) (or (or ?v_53 ?v_202) ?v_227)) (or (or P41 ?v_55) ?v_60)) (or (or ?v_18 ?v_56) ?v_53)) (or (or ?v_104 ?v_58) ?v_3)) (or (or ?v_59 ?v_12) P1)) (or (or ?v_185 ?v_254) ?v_19)) (or (or P47 ?v_60) P14)) (or (or ?v_188 P37) P1)) (or (or ?v_1 ?v_62) P31)) (or (or ?v_116 ?v_108) ?v_64)) (or (or ?v_65 P31) ?v_66)) (or (or ?v_98 ?v_123) ?v_201)) (or (or ?v_26 P11) ?v_232)) (or (or ?v_62 ?v_38) ?v_33)) (or (or ?v_68 ?v_69) ?v_70)) (or (or ?v_71 ?v_15) ?v_230)) (or (or ?v_72 P20) ?v_73)) (or (or ?v_22 ?v_160) ?v_49)) (or (or P47 P45) ?v_90)) (or (or ?v_74 ?v_82) ?v_117)) (or (or ?v_111 ?v_17) P33)) (or (or P9 ?v_76) ?v_88)) (or (or ?v_81 ?v_77) ?v_78)) (or (or ?v_79 ?v_80) ?v_81)) (or (or ?v_18 ?v_82) ?v_225)) (or (or ?v_83 P16) ?v_103)) (or (or ?v_237 ?v_0) P42)) (or (or ?v_49 ?v_24) ?v_83)) (or (or P10 ?v_119) P15)) (or (or P10 ?v_84) ?v_159)) (or (or ?v_85 ?v_92) ?v_212)) (or (or ?v_126 ?v_87) ?v_88)) (or (or ?v_128 ?v_89) ?v_81)) (or (or ?v_145 ?v_210) ?v_91)) (or (or ?v_92 ?v_93) ?v_34)) (or (or ?v_93 ?v_79) ?v_97)) (or (or ?v_50 ?v_17) P47)) (or (or ?v_95 ?v_51) ?v_155)) (or (or ?v_48 ?v_141) ?v_11)) (or (or ?v_15 ?v_260) P20)) (or (or ?v_97 P16) P34)) (or (or ?v_98 ?v_99) P32)) (or (or ?v_54 ?v_100) ?v_101)) (or (or ?v_102 ?v_36) P40)) (or (or P2 P13) ?v_180)) (or (or ?v_14 P35) P21)) (or (or ?v_236 P39) ?v_103)) (or (or ?v_104 P42) ?v_203)) (or (or ?v_105 ?v_106) ?v_196)) (or (or ?v_107 ?v_108) ?v_9)) (or (or ?v_109 ?v_110) ?v_111)) (or (or P39 ?v_103) ?v_112)) (or (or ?v_72 ?v_8) ?v_113)) (or (or ?v_10 ?v_133) ?v_114)) (or (or ?v_115 ?v_56) ?v_15)) (or (or ?v_86 ?v_108) ?v_87)) (or (or ?v_82 ?v_61) ?v_91)) (or (or ?v_251 ?v_116) ?v_90)) (or (or ?v_117 ?v_117) ?v_118)) (or (or ?v_6 ?v_119) ?v_106)) (or (or ?v_151 ?v_12) ?v_90)) (or (or P33 ?v_120) ?v_121)) (or (or ?v_122 ?v_123) ?v_131)) (or (or P38 ?v_132) ?v_125)) (or (or P17 ?v_126) P0)) (or (or P9 ?v_72) ?v_138)) (or (or ?v_137 ?v_76) ?v_27)) (or (or ?v_150 ?v_220) ?v_72)) (or (or ?v_117 ?v_127) ?v_128)) (or (or ?v_81 ?v_129) ?v_80)) (or (or ?v_192 ?v_81) ?v_130)) (or (or ?v_198 ?v_176) ?v_132)) (or (or ?v_181 ?v_33) ?v_133)) (or (or ?v_134 ?v_135) ?v_43)) (or (or ?v_34 P33) P1)) (or (or ?v_136 ?v_186) ?v_138)) (or (or ?v_79 ?v_115) ?v_36)) (or (or ?v_139 ?v_132) ?v_165)) (or (or ?v_111 ?v_13) ?v_140)) (or (or ?v_72 ?v_141) ?v_135)) (or (or P18 ?v_29) ?v_142)) (or (or ?v_211 ?v_143) ?v_144)) (or ?v_259 ?v_145)) (or (or ?v_27 ?v_99) ?v_136)) (or (or ?v_146 ?v_131) ?v_126)) (or (or ?v_18 ?v_32) ?v_1)) (or (or ?v_39 ?v_58) ?v_147)) (or (or ?v_118 ?v_148) ?v_18)) (or (or ?v_149 ?v_101) ?v_109)) (or (or ?v_37 ?v_162) ?v_73)) (or (or P30 ?v_33) ?v_142)) (or (or ?v_22 ?v_41) ?v_191)) (or (or ?v_150 P40) ?v_74)) (or (or ?v_151 ?v_223) ?v_143)) (or (or ?v_93 P47) P20)) (or (or ?v_49 ?v_178) ?v_81)) (or (or ?v_114 ?v_152) ?v_153)) (or (or ?v_136 ?v_156) P45)) (or (or P0 ?v_217) P5)) (or (or ?v_53 P5) ?v_65)) (or (or ?v_19 ?v_126) ?v_9)) (or (or ?v_154 ?v_127) ?v_155)) (or (or P25 ?v_50) ?v_41)) (or (or ?v_103 ?v_138) ?v_156)) (or (or P21 ?v_49) ?v_157)) (or (or ?v_158 ?v_128) ?v_55)) (or (or ?v_88 ?v_207) ?v_170)) (or (or ?v_53 P48) P36)) (or (or P39 ?v_159) ?v_215)) (or (or ?v_160 ?v_243) P25)) (or (or P9 ?v_161) ?v_99)) (or (or ?v_162 ?v_14) ?v_219)) (or (or ?v_81 ?v_153) ?v_14)) (or (or ?v_256 ?v_165) ?v_142)) (or (or ?v_27 ?v_3) ?v_53)) (or (or ?v_182 ?v_101) ?v_112)) (or (or ?v_213 P8) ?v_80)) (or (or ?v_167 ?v_123) ?v_168)) (or (or ?v_108 ?v_84) ?v_54)) (or (or ?v_131 P28) ?v_160)) (or (or P43 ?v_70) ?v_241)) (or (or P2 P38) P35)) (or (or P41 ?v_10) ?v_229)) (or (or ?v_22 ?v_169) P30)) (or (or ?v_170 ?v_144) ?v_122)) (or (or P3 ?v_171) ?v_93)) (or (or ?v_40 ?v_82) ?v_172)) (or (or ?v_166 ?v_92) P5)) (or (or ?v_86 ?v_125) ?v_168)) (or (or ?v_142 ?v_11) ?v_173)) (or (or ?v_24 ?v_174) ?v_175)) (or (or ?v_53 P13) ?v_24)) (or (or ?v_176 ?v_143) ?v_177)) (or (or P5 P9) ?v_178)) (or (or P33 ?v_15) P49)) (or (or ?v_205 ?v_88) ?v_160)) (or (or ?v_91 ?v_81) P8)) (or (or ?v_31 ?v_111) ?v_103)) (or (or ?v_179 ?v_165) ?v_180)) (or (or ?v_145 ?v_58) ?v_166)) (or (or ?v_7 ?v_181) ?v_99)) (or (or ?v_60 ?v_182) ?v_63)) (or (or ?v_40 ?v_150) ?v_183)) (or (or P44 ?v_184) ?v_155)) (or (or ?v_185 ?v_165) P18)) (or (or ?v_186 ?v_214) P2)) (or (or ?v_188 ?v_189) ?v_190)) (or (or ?v_87 ?v_128) ?v_222)) (or (or ?v_108 ?v_191) ?v_91)) (or (or ?v_192 ?v_193) ?v_100)) (or (or P28 P13) ?v_15)) (or (or ?v_58 ?v_76) P41)) (or (or ?v_110 ?v_194) ?v_195)) (or (or ?v_196 ?v_91) ?v_180)) (or (or ?v_88 ?v_197) ?v_19)) (or (or ?v_44 ?v_198) P14)) (or (or ?v_144 ?v_10) ?v_199)) (or (or ?v_92 ?v_17) ?v_216)) (or (or ?v_12 P28) ?v_200)) (or (or P37 ?v_39) ?v_24)) (or (or P43 ?v_82) ?v_201)) (or (or ?v_105 P48) P49)) (or (or P27 ?v_139) ?v_12)) (or (or ?v_115 ?v_66) ?v_206)) (or (or ?v_143 ?v_91) ?v_112)) (or (or ?v_188 ?v_152) P14)) (or (or ?v_99 ?v_96) ?v_160)) (or (or ?v_202 P35) ?v_81)) (or (or ?v_186 P6) ?v_203)) (or (or ?v_204 ?v_205) ?v_50)) (or (or ?v_17 ?v_95) ?v_140)) (or (or ?v_173 ?v_206) ?v_32)) (or (or ?v_207 ?v_66) ?v_204)) (or (or ?v_84 ?v_95) ?v_6)) (or (or ?v_186 ?v_87) ?v_107)) (or (or ?v_38 ?v_91) ?v_191)) (or (or ?v_169 ?v_35) ?v_121)) (or (or ?v_161 ?v_169) ?v_208)) (or (or P11 ?v_81) ?v_194)) (or (or ?v_153 ?v_118) ?v_137)) (or (or ?v_239 ?v_209) ?v_49)) (or (or ?v_30 ?v_210) ?v_174)) (or (or P10 ?v_211) ?v_201)) (or (or ?v_212 ?v_62) ?v_213)) (or (or ?v_214 P3) ?v_123)) (or (or ?v_167 ?v_224) P5)) (or (or ?v_171 ?v_136) ?v_215)) (or (or ?v_8 ?v_137) ?v_38)) (or (or ?v_216 ?v_126) ?v_217)) (or (or ?v_117 P11) ?v_152)) (or (or ?v_92 ?v_64) ?v_182)) (or (or P20 ?v_71) ?v_81)) (or (or ?v_208 ?v_9) ?v_218)) (or (or ?v_30 ?v_129) ?v_233)) (or (or ?v_220 P4) P6)) (or (or ?v_63 ?v_196) ?v_19)) (or (or ?v_81 ?v_92) ?v_211)) (or (or ?v_186 ?v_211) ?v_26)) (or (or ?v_84 ?v_184) ?v_221)) (or (or ?v_136 ?v_222) ?v_200)) (or (or P40 ?v_66) ?v_242)) (or (or ?v_76 ?v_127) ?v_38)) (or (or P20 ?v_60) ?v_125)) (or (or P2 ?v_222) ?v_10)) (or (or ?v_136 ?v_224) ?v_113)) (or (or P34 ?v_169) P9)) (or (or ?v_56 ?v_131) P45)) (or (or P7 ?v_9) ?v_225)) (or (or P41 ?v_19) ?v_150)) (or (or ?v_145 P32) P10)) (or (or ?v_148 ?v_132) ?v_26)) (or (or ?v_147 P34) ?v_211)) (or (or ?v_166 P37) ?v_158)) (or (or ?v_112 ?v_135) P49)) (or (or ?v_43 P42) P19)) (or (or ?v_146 ?v_226) P5)) (or (or ?v_85 ?v_206) ?v_107)) (or (or ?v_87 ?v_140) ?v_106)) (or (or ?v_227 ?v_6) ?v_223)) (or (or ?v_12 ?v_54) ?v_120)) (or (or P48 P4) ?v_114)) (or (or P34 P29) ?v_105)) (or (or ?v_228 ?v_49) ?v_23)) (or (or P32 ?v_8) ?v_229)) (or (or P4 ?v_5) ?v_116)) (or (or ?v_20 ?v_66) ?v_3)) (or (or ?v_179 ?v_85) ?v_127)) (or (or ?v_114 ?v_60) ?v_203)) (or (or ?v_205 ?v_157) P36)) (or (or ?v_96 ?v_103) ?v_6)) (or (or ?v_93 ?v_216) ?v_188)) (or (or ?v_26 ?v_231) ?v_89)) (or (or ?v_174 P10) ?v_159)) (or (or P49 ?v_126) ?v_90)) (or (or P46 P43) ?v_141)) (or (or ?v_230 ?v_161) ?v_231)) (or (or ?v_91 P13) ?v_101)) (or (or ?v_114 P48) ?v_123)) (or (or P9 ?v_100) ?v_192)) (or (or P40 ?v_232) ?v_108)) (or (or ?v_144 ?v_121) ?v_232)) (or (or ?v_208 ?v_114) ?v_233)) (or (or ?v_234 P2) P6)) (or (or ?v_211 ?v_108) ?v_170)) (or (or ?v_128 ?v_91) ?v_42)) (or (or ?v_177 ?v_26) P25)) (or (or ?v_70 ?v_25) ?v_63)) (or (or ?v_176 ?v_82) ?v_46)) (or (or ?v_63 P34) ?v_257)) (or (or (not P0) ?v_188) ?v_26)) (or (or ?v_204 ?v_214) ?v_97)) (or (or ?v_6 ?v_233) ?v_173)) (or (or ?v_102 ?v_188) ?v_29)) (or (or ?v_211 ?v_7) ?v_6)) (or (or ?v_227 ?v_145) ?v_84)) (or (or ?v_117 ?v_110) P16)) (or (or ?v_58 ?v_95) P15)) (or (or P0 ?v_235) ?v_33)) (or (or ?v_1 ?v_157) ?v_110)) (or (or ?v_212 ?v_204) P7)) (or (or ?v_236 ?v_7) ?v_94)) (or (or ?v_220 P18) ?v_107)) (or (or ?v_27 ?v_172) ?v_237)) (or (or ?v_205 ?v_231) ?v_146)) (or (or ?v_86 ?v_171) ?v_0)) (or (or ?v_44 ?v_149) ?v_131)) (or (or ?v_226 ?v_82) P21)) (or (or ?v_13 ?v_31) ?v_120)) (or (or ?v_159 ?v_84) ?v_113)) (or (or ?v_226 ?v_104) ?v_73)) (or (or ?v_200 ?v_102) ?v_3)) (or (or P16 ?v_58) ?v_238)) (or (or ?v_177 P23) ?v_5)) (or (or ?v_86 P14) ?v_111)) (or (or P22 ?v_239) ?v_37)) (or (or ?v_125 ?v_240) ?v_61)) (or (or ?v_146 P6) ?v_188)) (or (or ?v_5 ?v_17) ?v_56)) (or (or P33 ?v_7) ?v_6)) (or (or P15 ?v_207) ?v_178)) (or (or ?v_7 ?v_118) ?v_16)) (or (or P28 ?v_228) ?v_46)) (or (or P21 ?v_245) ?v_207)) (or (or ?v_120 ?v_68) ?v_59)) (or (or P2 ?v_199) ?v_210)) (or (or ?v_70 P13) ?v_67)) (or (or ?v_222 ?v_242) P14)) (or (or ?v_117 ?v_29) P38)) (or (or P35 ?v_143) ?v_195)) (or (or ?v_87 ?v_148) ?v_83)) (or (or ?v_200 ?v_208) ?v_157)) (or (or ?v_64 ?v_66) ?v_167)) (or (or P3 ?v_22) ?v_67)) (or (or P24 ?v_134) ?v_242)) (or (or ?v_149 ?v_76) ?v_106)) (or (or ?v_8 ?v_247) P13)) (or (or ?v_115 ?v_86) ?v_146)) (or (or ?v_158 ?v_243) ?v_65)) (or (or ?v_144 ?v_202) P35)) (or (or ?v_35 ?v_77) ?v_119)) (or (or ?v_181 P47) P24)) (or (or ?v_77 ?v_250) ?v_235)) (or (or ?v_60 ?v_210) ?v_153)) (or (or ?v_244 ?v_102) ?v_180)) (or (or ?v_203 ?v_144) ?v_6)) (or (or ?v_112 ?v_104) ?v_24)) (or (or ?v_3 ?v_17) ?v_204)) (or (or ?v_203 ?v_246) P43)) (or (or ?v_229 P49) P9)) (or (or ?v_167 ?v_202) ?v_189)) (or (or P8 ?v_64) ?v_86)) (or (or ?v_17 ?v_139) ?v_25)) (or (or ?v_3 ?v_130) ?v_169)) (or (or ?v_205 ?v_122) ?v_245)) (or (or ?v_242 ?v_229) ?v_170)) (or (or ?v_180 ?v_203) ?v_230)) (or (or ?v_19 ?v_125) ?v_95)) (or (or P19 ?v_119) ?v_156)) (or (or ?v_156 ?v_191) ?v_223)) (or (or ?v_216 ?v_246) ?v_253)) (or (or ?v_108 ?v_51) ?v_241)) (or (or ?v_122 ?v_120) ?v_139)) (or (or ?v_247 ?v_220) ?v_245)) (or (or ?v_237 P18) ?v_122)) (or (or ?v_61 ?v_258) ?v_5)) (or (or ?v_67 ?v_155) P39)) (or (or ?v_35 ?v_96) ?v_119)) (or (or ?v_78 P12) ?v_216)) (or (or ?v_200 ?v_56) ?v_70)) (or (or ?v_134 P49) ?v_105)) (or (or ?v_65 ?v_72) ?v_146)) (or (or ?v_218 ?v_30) ?v_248)) (or (or ?v_62 ?v_249) ?v_31)) (or (or ?v_123 ?v_206) P35)) (or (or P36 ?v_147) ?v_108)) (or (or ?v_132 ?v_18) ?v_250)) (or (or ?v_205 ?v_212) ?v_251)) (or (or ?v_235 ?v_190) ?v_252)) (or (or ?v_231 ?v_3) P16)) (or (or ?v_215 ?v_170) ?v_98)) (or (or ?v_18 ?v_31) ?v_69)) (or (or P46 ?v_184) ?v_78)) (or (or ?v_191 ?v_144) ?v_245)) (or (or ?v_218 ?v_167) ?v_9)) (or (or P48 ?v_156) P24)) (or (or ?v_230 ?v_241) ?v_83)) (or (or ?v_53 ?v_192) P48)) (or (or ?v_181 ?v_103) ?v_131)) (or (or ?v_59 ?v_244) ?v_88)) (or (or ?v_46 P15) ?v_73)) (or (or ?v_176 ?v_227) ?v_96)) (or (or ?v_103 ?v_107) P29)) (or (or ?v_240 ?v_179) ?v_196)) (or (or ?v_176 ?v_54) ?v_218)) (or (or ?v_102 ?v_29) ?v_239)) (or (or ?v_205 P28) ?v_154)) (or (or ?v_84 ?v_158) ?v_224)) (or (or ?v_246 ?v_100) ?v_248)) (or (or ?v_13 ?v_73) ?v_33)) (or (or ?v_211 ?v_110) ?v_112)) (or (or ?v_162 ?v_19) ?v_226)) (or (or ?v_3 ?v_74) ?v_32)) (or (or P48 ?v_17) ?v_221)) (or (or ?v_121 ?v_253) ?v_152)) (or (or ?v_110 ?v_87) ?v_254)) (or (or ?v_7 ?v_32) ?v_89)) (or (or ?v_89 P33) ?v_127)) (or (or ?v_130 ?v_234) ?v_23)) (or (or ?v_20 ?v_65) ?v_152)) (or (or ?v_40 ?v_104) ?v_205)) (or (or ?v_241 P3) ?v_50)) (or (or ?v_73 ?v_139) ?v_169)) (or (or ?v_36 ?v_155) ?v_240)) (or ?v_255 ?v_14)) (or (or ?v_161 ?v_139) ?v_108)) (or (or ?v_256 P22) ?v_183)) (or (or ?v_38 ?v_167) ?v_247)) (or (or ?v_33 ?v_73) P29)) (or (or ?v_251 ?v_73) P6)) (or (or ?v_257 ?v_220) ?v_224)) (or (or P2 ?v_53) ?v_192)) (or (or ?v_154 ?v_12) ?v_144)) (or (or ?v_249 P31) ?v_22)) (or (or ?v_134 ?v_92) ?v_171)) (or (or ?v_30 ?v_204) ?v_70)) (or (or ?v_248 P10) ?v_49)) (or (or ?v_18 ?v_250) ?v_258)) (or (or P20 ?v_77) ?v_160)) (or (or P20 P47) ?v_227)) (or (or P27 ?v_26) ?v_59)) (or (or ?v_10 ?v_26) ?v_27)) (or (or ?v_143 ?v_9) ?v_221)) (or (or ?v_115 ?v_223) ?v_238)) (or (or ?v_134 ?v_204) ?v_215)) (or (or ?v_40 ?v_154) ?v_115)) (or (or P20 ?v_139) ?v_29)) (or (or ?v_87 ?v_235) ?v_41)) (or (or ?v_48 P33) ?v_167)) (or (or ?v_114 ?v_189) P12)) (or (or ?v_114 ?v_89) P43)) (or (or P11 ?v_231) ?v_181)) (or (or ?v_183 P31) ?v_56)) (or (or ?v_231 ?v_37) ?v_179)) (or (or ?v_117 ?v_66) ?v_243)) (or (or P9 ?v_127) ?v_205)) (or (or ?v_77 ?v_238) ?v_207)) (or (or ?v_226 ?v_183) ?v_25)) (or (or ?v_149 ?v_130) ?v_169)) (or (or ?v_229 ?v_92) ?v_194)) (or (or ?v_123 P44) P27)) (or (or ?v_26 ?v_141) ?v_86)) (or (or ?v_24 ?v_24) ?v_8)) (or (or P1 ?v_44) P2)) (or (or ?v_93 ?v_201) ?v_176)) (or (or ?v_56 ?v_195) ?v_177)) (or (or P42 ?v_138) P28)) (or (or ?v_87 ?v_48) ?v_102)) (or (or ?v_231 ?v_106) ?v_209)) (or (or ?v_22 ?v_73) ?v_198)) (or (or ?v_9 ?v_107) ?v_216)) (or (or ?v_241 ?v_231) ?v_167)) (or (or ?v_236 ?v_17) ?v_233)) (or (or P27 ?v_128) ?v_111)) (or (or ?v_15 P43) ?v_169)) (or (or ?v_234 ?v_144) ?v_132)) (or (or ?v_17 P18) ?v_183)) (or (or ?v_39 ?v_184) P15)) (or (or ?v_206 ?v_113) ?v_207)) (or (or ?v_113 ?v_6) ?v_123)) (or (or ?v_192 ?v_168) ?v_114)) (or (or ?v_6 ?v_154) ?v_233)) (or (or ?v_200 ?v_18) ?v_38)) (or (or ?v_115 P14) ?v_166)) (or (or P0 ?v_36) ?v_219)) (or (or P16 ?v_31) ?v_217)) (or (or P3 ?v_29) ?v_209)) (or (or ?v_202 ?v_247) ?v_99)) (or (or ?v_234 ?v_0) P31)) (or (or ?v_12 ?v_169) ?v_258)) (or (or ?v_254 ?v_218) ?v_227)) (or (or ?v_58 P19) ?v_53)) (or (or ?v_62 ?v_139) P12)) (or (or P9 ?v_253) ?v_138)) (or (or ?v_162 ?v_135) ?v_19)) (or (or ?v_72 ?v_39) ?v_71)) (or (or P6 ?v_73) ?v_219)) (or (or P18 ?v_223) ?v_167)) (or (or P16 ?v_33) P39)) (or (or ?v_55 ?v_170) ?v_72)) (or (or ?v_56 ?v_223) ?v_18)) (or (or ?v_0 ?v_138) ?v_247)) (or (or ?v_180 ?v_190) ?v_14)) (or (or ?v_7 P33) P17)) (or (or P43 ?v_147) ?v_193)) (or (or ?v_33 ?v_243) ?v_195)) (or (or ?v_197 ?v_127) ?v_253)) (or (or ?v_84 ?v_208) ?v_154)) (or (or ?v_87 ?v_215) ?v_169)) (or (or ?v_136 ?v_138) P41)) (or (or ?v_0 ?v_190) P21)) (or (or P14 ?v_68) ?v_55)) (or (or ?v_214 ?v_257) ?v_113)) (or (or P29 ?v_70) ?v_86)) (or (or ?v_71 ?v_49) ?v_144)) (or (or ?v_143 ?v_203) ?v_98)) (or (or ?v_212 P26) ?v_167)) (or (or ?v_186 ?v_9) ?v_44)) (or (or ?v_236 ?v_146) ?v_175)) (or (or ?v_247 ?v_24) ?v_6)) (or (or ?v_248 ?v_258) ?v_50)) (or (or ?v_245 ?v_98) P36)) (or (or ?v_166 ?v_97) ?v_54)) (or (or ?v_118 ?v_53) ?v_169)) (or (or P5 ?v_166) ?v_92)) (or (or ?v_182 ?v_142) ?v_168)) (or (or ?v_221 ?v_140) P26)) (or (or ?v_213 ?v_89) ?v_177)) (or (or ?v_257 P21) ?v_90)) (or ?v_259 P38)) (or (or P10 ?v_66) ?v_177)) (or (or ?v_145 P48) ?v_30)) (or (or P9 ?v_248) ?v_154)) (or (or ?v_7 P4) ?v_169)) (or (or ?v_186 ?v_212) ?v_231)) (or (or ?v_165 ?v_37) ?v_149)) (or (or ?v_182 ?v_252) P26)) (or (or ?v_209 ?v_0) ?v_11)) (or (or ?v_23 P44) ?v_216)) (or (or ?v_217 ?v_72) ?v_223)) (or (or ?v_61 P6) ?v_141)) (or (or ?v_54 ?v_250) ?v_171)) (or (or ?v_116 ?v_58) ?v_56)) (or (or ?v_72 ?v_251) ?v_169)) (or (or ?v_48 ?v_119) P35)) (or (or ?v_94 P18) P2)) (or (or ?v_144 ?v_191) ?v_258)) (or (or ?v_73 ?v_196) ?v_227)) (or (or ?v_132 ?v_231) P15)) (or (or ?v_43 P32) ?v_13)) (or (or ?v_121 ?v_17) ?v_76)) (or (or ?v_118 ?v_58) ?v_1)) (or (or ?v_233 ?v_214) ?v_199)) (or (or ?v_260 ?v_228) ?v_121)) (or (or ?v_221 P42) ?v_185)) (or (or P2 P19) P5)) (or (or ?v_203 ?v_248) P40)) (or (or ?v_195 P35) P1)) (or (or ?v_14 ?v_136) ?v_180)) (or (or ?v_167 ?v_8) P13)) (or (or ?v_30 ?v_227) P6)) (or (or ?v_120 ?v_146) ?v_49)) (or (or P45 ?v_64) P1)) (or (or P1 ?v_254) ?v_258)) (or (or ?v_188 ?v_85) P32)) (or (or ?v_22 ?v_100) ?v_252)) (or (or P31 ?v_252) ?v_63)) (or (or P36 ?v_34) P15)) (or (or ?v_154 ?v_125) ?v_200)) (or (or P2 P43) ?v_215)) (or (or (not P40) P34) P47)) (or (or ?v_73 ?v_56) ?v_107)) (or (or ?v_71 ?v_132) ?v_97)) (or (or ?v_128 ?v_254) ?v_143)) (or (or ?v_260 ?v_20) P16)) (or (or ?v_198 P28) ?v_196)) (or (or ?v_222 ?v_135) ?v_122)) (or (or ?v_39 ?v_205) ?v_100)) (or (or ?v_137 ?v_127) ?v_245)) (or (or ?v_176 ?v_109) ?v_14)) (or (or ?v_153 ?v_82) ?v_104)) (or (or ?v_189 ?v_43) ?v_15)) (or (or ?v_73 P32) ?v_23)) (or (or P27 ?v_32) ?v_77)) (or (or ?v_149 ?v_38) P39))))))))))))))))))))))))))))))))))))
(check-sat)
(exit)
